Gurobi Optimizer version 9.0.1 build v9.0.1rc0 (linux64)
Optimize a model with 43200 rows, 183235 columns and 1038761 nonzeros
Model fingerprint: 0x51f8d48d
Coefficient statistics:
  Matrix range     [1e+00, 3e+05]
  Objective range  [1e+00, 1e+00]
  Bounds range     [1e+00, 5e+00]
  RHS range        [1e+00, 2e+05]
Presolve removed 9602 rows and 43030 columns
Presolve time: 0.88s
Presolved: 33598 rows, 140205 columns, 781668 nonzeros
Ordering time: 0.76s

Barrier statistics:
 AA' NZ     : 1.023e+06
 Factor NZ  : 2.325e+06 (roughly 90 MBytes of memory)
 Factor Ops : 2.332e+08 (less than 1 second per iteration)
 Threads    : 1

                  Objective                Residual
Iter       Primal          Dual         Primal    Dual     Compl     Time
   0  -2.07197533e+09 -1.75250101e+08  1.00e+07 1.55e+02  4.17e+06     2s
   1  -1.32369149e+09 -2.95875013e+09  7.01e+06 9.79e+01  3.02e+06     3s
   2  -4.70115834e+07 -3.91993139e+09  2.09e+05 3.47e-12  1.11e+05     3s
   3  -1.18523607e+07 -1.56573413e+09  1.29e+04 4.55e-12  1.32e+04     3s
   4  -1.01457210e+07 -7.88983126e+08  4.51e+03 3.58e-12  5.52e+03     3s
   5  -9.56134232e+06 -5.15025144e+08  2.38e+03 4.35e-12  3.36e+03     4s
   6  -9.15246633e+06 -3.52218154e+08  1.25e+03 4.12e-12  2.17e+03     4s
   7  -8.80440982e+06 -1.94850394e+08  5.73e+02 6.22e-12  1.14e+03     4s
   8  -8.68412545e+06 -1.03523040e+08  3.27e+02 3.31e-12  5.68e+02     4s
   9  -8.66620208e+06 -6.21877002e+07  1.43e+02 2.96e-12  3.11e+02     4s
  10  -8.75007835e+06 -5.92312588e+07  9.80e+01 3.25e-12  2.91e+02     4s
  11  -8.84845197e+06 -4.20587784e+07  5.38e+01 2.44e-12  1.89e+02     5s
  12  -8.94392647e+06 -2.88656411e+07  3.62e+01 1.38e-12  1.13e+02     5s
  13  -8.97686361e+06 -2.80116097e+07  3.34e+01 2.38e-12  1.08e+02     5s
  14  -9.06431452e+06 -2.65577558e+07  2.56e+01 1.30e-12  9.92e+01     5s
  15  -9.19658744e+06 -2.07199962e+07  1.68e+01 1.28e-12  6.52e+01     6s
  16  -9.28538524e+06 -1.72244196e+07  1.31e+01 9.09e-13  4.49e+01     6s
  17  -9.39150361e+06 -1.52016855e+07  9.43e+00 5.68e-13  3.28e+01     6s
  18  -9.50821742e+06 -1.39423730e+07  6.00e+00 9.09e-13  2.50e+01     6s
  19  -9.56301244e+06 -1.32897592e+07  4.65e+00 6.96e-13  2.10e+01     7s
  20  -9.62885411e+06 -1.28359754e+07  3.15e+00 4.76e-13  1.81e+01     7s
  21  -9.68006060e+06 -1.22866291e+07  2.17e+00 4.87e-13  1.47e+01     7s
  22  -9.70778853e+06 -1.16661453e+07  1.67e+00 3.41e-13  1.10e+01     7s
  23  -9.73363412e+06 -1.12827928e+07  1.19e+00 3.97e-13  8.72e+00     8s
  24  -9.73730388e+06 -1.08206828e+07  1.11e+00 3.41e-13  6.10e+00     8s
  25  -9.74501000e+06 -1.06776981e+07  9.44e-01 4.73e-13  5.25e+00     8s
  26  -9.75564806e+06 -1.05236230e+07  5.86e-01 3.43e-13  4.32e+00     8s
  27  -9.76111056e+06 -9.85668633e+06  2.11e-01 3.90e-13  5.39e-01     8s
  28  -9.76889424e+06 -9.77306481e+06  4.48e-05 2.80e-13  2.35e-02     9s
  29  -9.76897292e+06 -9.76897713e+06  3.55e-15 3.07e-13  2.37e-05     9s
  30  -9.76897300e+06 -9.76897300e+06  4.71e-09 2.46e-13  2.52e-11     9s

Barrier solved model in 30 iterations and 9.07 seconds
Optimal objective -9.76897300e+06

Solver name: Gurobi
Solve time: 9.219846418
Termination status: OPTIMAL
Result count: 1
Primal status: FEASIBLE_POINT
Dual status: FEASIBLE_POINT
